
Gurobi 7.0.1 (mac64) logging started Wed Sep 20 20:23:10 2017


Gurobi Optimizer version 7.0.1 build v7.0.1rc0-1-g64d25eb (mac64)
Copyright (c) 2016, Gurobi Optimization, Inc.

Read LP format model from file /var/folders/nd/q2x4qjnd6n9fvcdkgrbz65g80000gn/T/34701-pulp.lp
Reading time = 0.00 seconds
OBJ: 42 rows, 522 columns, 2296 nonzeros
Optimize a model with 42 rows, 522 columns and 2296 nonzeros
Variable types: 0 continuous, 522 integer (522 binary)
Coefficient statistics:
  Matrix range     [1e+00, 1e+04]
  Objective range  [1e-01, 5e+01]
  Bounds range     [1e+00, 1e+00]
  RHS range        [1e+00, 5e+04]
Found heuristic solution: objective 2
Presolve removed 4 rows and 243 columns
Presolve time: 0.00s
Presolved: 38 rows, 279 columns, 1200 nonzeros
Variable types: 0 continuous, 279 integer (255 binary)

Root relaxation: objective 2.781200e+02, 5 iterations, 0.00 seconds

    Nodes    |    Current Node    |     Objective Bounds      |     Work
 Expl Unexpl |  Obj  Depth IntInf | Incumbent    BestBd   Gap | It/Node Time

*    0     0               0     278.1200000  278.12000  0.00%     -    0s

Explored 0 nodes (5 simplex iterations) in 0.01 seconds
Thread count was 4 (of 4 available processors)

Solution count 2: 278.12 2 
Pool objective bound 278.12

Optimal solution found (tolerance 1.00e-04)
Best objective 2.781200000000e+02, best bound 2.781200000000e+02, gap 0.0000%

Wrote result file '/var/folders/nd/q2x4qjnd6n9fvcdkgrbz65g80000gn/T/34701-pulp.sol'


Gurobi 7.0.1 (mac64) logging started Wed Sep 20 20:24:06 2017


Gurobi Optimizer version 7.0.1 build v7.0.1rc0-1-g64d25eb (mac64)
Copyright (c) 2016, Gurobi Optimization, Inc.

Read LP format model from file /var/folders/nd/q2x4qjnd6n9fvcdkgrbz65g80000gn/T/34882-pulp.lp
Reading time = 0.00 seconds
OBJ: 42 rows, 522 columns, 2296 nonzeros
Optimize a model with 42 rows, 522 columns and 2296 nonzeros
Variable types: 0 continuous, 522 integer (522 binary)
Coefficient statistics:
  Matrix range     [1e+00, 1e+04]
  Objective range  [1e-01, 5e+01]
  Bounds range     [1e+00, 1e+00]
  RHS range        [1e+00, 5e+04]
Found heuristic solution: objective 2
Presolve removed 4 rows and 243 columns
Presolve time: 0.01s
Presolved: 38 rows, 279 columns, 1200 nonzeros
Variable types: 0 continuous, 279 integer (255 binary)

Root relaxation: objective 2.781200e+02, 5 iterations, 0.00 seconds

    Nodes    |    Current Node    |     Objective Bounds      |     Work
 Expl Unexpl |  Obj  Depth IntInf | Incumbent    BestBd   Gap | It/Node Time

*    0     0               0     278.1200000  278.12000  0.00%     -    0s

Explored 0 nodes (5 simplex iterations) in 0.01 seconds
Thread count was 4 (of 4 available processors)

Solution count 2: 278.12 2 
Pool objective bound 278.12

Optimal solution found (tolerance 1.00e-04)
Best objective 2.781200000000e+02, best bound 2.781200000000e+02, gap 0.0000%

Wrote result file '/var/folders/nd/q2x4qjnd6n9fvcdkgrbz65g80000gn/T/34882-pulp.sol'


Gurobi 7.0.1 (mac64) logging started Wed Sep 20 20:24:51 2017


Gurobi Optimizer version 7.0.1 build v7.0.1rc0-1-g64d25eb (mac64)
Copyright (c) 2016, Gurobi Optimization, Inc.

Read LP format model from file /var/folders/nd/q2x4qjnd6n9fvcdkgrbz65g80000gn/T/35088-pulp.lp
Reading time = 0.00 seconds
OBJ: 42 rows, 522 columns, 2296 nonzeros
Optimize a model with 42 rows, 522 columns and 2296 nonzeros
Variable types: 0 continuous, 522 integer (522 binary)
Coefficient statistics:
  Matrix range     [1e+00, 1e+04]
  Objective range  [1e-01, 5e+01]
  Bounds range     [1e+00, 1e+00]
  RHS range        [1e+00, 5e+04]
Found heuristic solution: objective 2
Presolve removed 4 rows and 243 columns
Presolve time: 0.00s
Presolved: 38 rows, 279 columns, 1200 nonzeros
Variable types: 0 continuous, 279 integer (255 binary)

Root relaxation: objective 2.781200e+02, 5 iterations, 0.00 seconds

    Nodes    |    Current Node    |     Objective Bounds      |     Work
 Expl Unexpl |  Obj  Depth IntInf | Incumbent    BestBd   Gap | It/Node Time

*    0     0               0     278.1200000  278.12000  0.00%     -    0s

Explored 0 nodes (5 simplex iterations) in 0.01 seconds
Thread count was 4 (of 4 available processors)

Solution count 2: 278.12 2 
Pool objective bound 278.12

Optimal solution found (tolerance 1.00e-04)
Best objective 2.781200000000e+02, best bound 2.781200000000e+02, gap 0.0000%

Wrote result file '/var/folders/nd/q2x4qjnd6n9fvcdkgrbz65g80000gn/T/35088-pulp.sol'


Gurobi 7.0.1 (mac64) logging started Wed Sep 20 21:25:49 2017


Gurobi Optimizer version 7.0.1 build v7.0.1rc0-1-g64d25eb (mac64)
Copyright (c) 2016, Gurobi Optimization, Inc.

Read LP format model from file /var/folders/nd/q2x4qjnd6n9fvcdkgrbz65g80000gn/T/41000-pulp.lp
Reading time = 0.00 seconds
OBJ: 42 rows, 522 columns, 2296 nonzeros
Optimize a model with 42 rows, 522 columns and 2296 nonzeros
Variable types: 0 continuous, 522 integer (522 binary)
Coefficient statistics:
  Matrix range     [1e+00, 1e+04]
  Objective range  [1e-01, 5e+01]
  Bounds range     [1e+00, 1e+00]
  RHS range        [1e+00, 5e+04]
Found heuristic solution: objective 2
Presolve removed 4 rows and 243 columns
Presolve time: 0.01s
Presolved: 38 rows, 279 columns, 1200 nonzeros
Variable types: 0 continuous, 279 integer (255 binary)

Root relaxation: objective 2.781200e+02, 5 iterations, 0.00 seconds

    Nodes    |    Current Node    |     Objective Bounds      |     Work
 Expl Unexpl |  Obj  Depth IntInf | Incumbent    BestBd   Gap | It/Node Time

*    0     0               0     278.1200000  278.12000  0.00%     -    0s

Explored 0 nodes (5 simplex iterations) in 0.02 seconds
Thread count was 4 (of 4 available processors)

Solution count 2: 278.12 2 
Pool objective bound 278.12

Optimal solution found (tolerance 1.00e-04)
Best objective 2.781200000000e+02, best bound 2.781200000000e+02, gap 0.0000%

Wrote result file '/var/folders/nd/q2x4qjnd6n9fvcdkgrbz65g80000gn/T/41000-pulp.sol'

